(set-logic QF_UF)
(declare-fun A1 () Bool)
(declare-fun A4 () Bool)
(declare-fun A5 () Bool)
(declare-fun A6 () Bool)
(declare-fun A7 () Bool)
(declare-fun A8 () Bool)
(declare-fun A9 () Bool)
(declare-fun A10 () Bool)
(declare-fun A11 () Bool)
(declare-fun A12 () Bool)
(declare-fun A13 () Bool)
(declare-fun A14 () Bool)
(declare-fun A15 () Bool)
(declare-fun A16 () Bool)
(declare-fun A17 () Bool)
(declare-fun A18 () Bool)
(declare-fun A20 () Bool)
(declare-fun A21 () Bool)
(declare-fun A22 () Bool)
(declare-fun A24 () Bool)
(declare-fun A25 () Bool)
(declare-fun A26 () Bool)
(declare-fun A27 () Bool)
(declare-fun A28 () Bool)
(declare-fun A29 () Bool)
(assert (let ((.def_0 (not A4))) (let ((.def_1 (not A14))) (let ((.def_2 (or .def_1 .def_0))) (let ((.def_3 (not .def_2))) (let ((.def_4 (not A8))) (let ((.def_5 (not A12))) (let ((.def_6 (and .def_5 .def_4))) (let ((.def_7 (or .def_6 .def_3))) (let ((.def_8 (not .def_7))) (let ((.def_9 (= A9 A11))) (let ((.def_10 (not .def_9))) (let ((.def_11 (not A17))) (let ((.def_12 (not A16))) (let ((.def_13 (or .def_12 .def_11))) (let ((.def_14 (not .def_13))) (let ((.def_15 (and .def_14 .def_10))) (let ((.def_16 (not .def_15))) (let ((.def_17 (or .def_16 .def_8))) (let ((.def_18 (not .def_17))) (let ((.def_19 (or A16 A6))) (let ((.def_20 (not .def_19))) (let ((.def_21 (or A4 A4))) (let ((.def_22 (not .def_21))) (let ((.def_23 (and .def_22 .def_20))) (let ((.def_24 (or A15 A8))) (let ((.def_25 (or A7 .def_1))) (let ((.def_26 (or .def_25 .def_24))) (let ((.def_27 (not .def_26))) (let ((.def_28 (or .def_27 .def_23))) (let ((.def_29 (not .def_28))) (let ((.def_30 (or .def_29 .def_18))) (let ((.def_31 (not .def_30))) (let ((.def_32 (or A17 A21))) (let ((.def_33 (not .def_32))) (let ((.def_34 (not A27))) (let ((.def_35 (or A10 .def_34))) (let ((.def_36 (and .def_35 .def_33))) (let ((.def_37 (not A11))) (let ((.def_38 (= .def_37 A26))) (let ((.def_39 (not .def_38))) (let ((.def_40 (not A22))) (let ((.def_41 (or A27 .def_40))) (let ((.def_42 (not .def_41))) (let ((.def_43 (and .def_42 .def_39))) (let ((.def_44 (not .def_43))) (let ((.def_45 (and .def_44 .def_36))) (let ((.def_46 (not .def_45))) (let ((.def_47 (not A28))) (let ((.def_48 (or .def_47 A13))) (let ((.def_49 (not .def_48))) (let ((.def_50 (not A24))) (let ((.def_51 (or A4 .def_50))) (let ((.def_52 (= .def_51 .def_49))) (let ((.def_53 (not .def_52))) (let ((.def_54 (and A25 .def_4))) (let ((.def_55 (not A18))) (let ((.def_56 (or .def_11 .def_55))) (let ((.def_57 (not .def_56))) (let ((.def_58 (and .def_57 .def_54))) (let ((.def_59 (and .def_58 .def_53))) (let ((.def_60 (not .def_59))) (let ((.def_61 (and .def_60 .def_46))) (let ((.def_62 (not .def_61))) (let ((.def_63 (or .def_62 .def_31))) (let ((.def_64 (not .def_63))) (let ((.def_65 (or .def_34 A27))) (let ((.def_66 (not .def_65))) (let ((.def_67 (not A13))) (let ((.def_68 (and A29 .def_67))) (let ((.def_69 (not .def_68))) (let ((.def_70 (or .def_69 .def_66))) (let ((.def_71 (= .def_37 A4))) (let ((.def_72 (or .def_50 A20))) (let ((.def_73 (and .def_72 .def_71))) (let ((.def_74 (and .def_73 .def_70))) (let ((.def_75 (not A1))) (let ((.def_76 (not A29))) (let ((.def_77 (and .def_76 .def_75))) (let ((.def_78 (not .def_77))) (let ((.def_79 (and .def_4 .def_76))) (let ((.def_80 (and .def_79 .def_78))) (let ((.def_81 (or A10 .def_67))) (let ((.def_82 (not .def_81))) (let ((.def_83 (and A18 .def_75))) (let ((.def_84 (or .def_83 .def_82))) (let ((.def_85 (not .def_84))) (let ((.def_86 (= .def_85 .def_80))) (let ((.def_87 (or .def_86 .def_74))) (let ((.def_88 (or A5 A13))) (let ((.def_89 (= A24 A13))) (let ((.def_90 (or .def_89 .def_88))) (let ((.def_91 (not A20))) (let ((.def_92 (and .def_91 A24))) (let ((.def_93 (not .def_92))) (let ((.def_94 (or A4 A18))) (let ((.def_95 (not .def_94))) (let ((.def_96 (and .def_95 .def_93))) (let ((.def_97 (= .def_96 .def_90))) (let ((.def_98 (not .def_97))) (let ((.def_99 (or A5 .def_1))) (let ((.def_100 (or A24 .def_0))) (let ((.def_101 (not .def_100))) (let ((.def_102 (= .def_101 .def_99))) (let ((.def_103 (or A20 .def_34))) (let ((.def_104 (= .def_11 .def_11))) (let ((.def_105 (or .def_104 .def_103))) (let ((.def_106 (= .def_105 .def_102))) (let ((.def_107 (= .def_106 .def_98))) (let ((.def_108 (and .def_107 .def_87))) (let ((.def_109 (and .def_108 .def_64))) .def_109)))))))))))))))))))))))))))))))))))))))))))))))))))))))))))))))))))))))))))))))))))))))))))))))))))))))))))))))
(check-sat)
